p cnf 1098 1960             
-2 -1 -96 0
96 -104 0
-1 97 0
-2 97 0
1 2 -97 0
-97 -3 -98 0
98 -104 0
-3 99 0
-97 99 0
3 97 -99 0
-99 -4 -100 0
100 -104 0
-4 101 0
-99 101 0
4 99 -101 0
-101 -5 -102 0
102 -104 0
5 101 -103 0
103 -104 0
104 -231 0
-7 -6 -105 0
105 -113 0
-6 106 0
-7 106 0
6 7 -106 0
-106 -8 -107 0
107 -113 0
-8 108 0
-106 108 0
8 106 -108 0
-108 -9 -109 0
109 -113 0
-9 110 0
-108 110 0
9 108 -110 0
-110 -10 -111 0
111 -113 0
10 110 -112 0
112 -113 0
113 -231 0
-12 -11 -114 0
114 -122 0
-11 115 0
-12 115 0
11 12 -115 0
-115 -13 -116 0
116 -122 0
-13 117 0
-115 117 0
13 115 -117 0
-117 -14 -118 0
118 -122 0
-14 119 0
-117 119 0
14 117 -119 0
-119 -15 -120 0
120 -122 0
15 119 -121 0
121 -122 0
122 -231 0
-17 -16 -123 0
123 -131 0
-16 124 0
-17 124 0
16 17 -124 0
-124 -18 -125 0
125 -131 0
-18 126 0
-124 126 0
18 124 -126 0
-126 -19 -127 0
127 -131 0
-19 128 0
-126 128 0
19 126 -128 0
-128 -20 -129 0
129 -131 0
20 128 -130 0
130 -131 0
131 -231 0
-22 -21 -132 0
132 -140 0
-21 133 0
-22 133 0
21 22 -133 0
-133 -23 -134 0
134 -140 0
-23 135 0
-133 135 0
23 133 -135 0
-135 -24 -136 0
136 -140 0
-24 137 0
-135 137 0
24 135 -137 0
-137 -25 -138 0
138 -140 0
25 137 -139 0
139 -140 0
140 -231 0
-27 -26 -141 0
141 -149 0
-26 142 0
-27 142 0
26 27 -142 0
-142 -28 -143 0
143 -149 0
-28 144 0
-142 144 0
28 142 -144 0
-144 -29 -145 0
145 -149 0
-29 146 0
-144 146 0
29 144 -146 0
-146 -30 -147 0
147 -149 0
30 146 -148 0
148 -149 0
149 -231 0
-32 -31 -150 0
150 -158 0
-31 151 0
-32 151 0
31 32 -151 0
-151 -33 -152 0
152 -158 0
-33 153 0
-151 153 0
33 151 -153 0
-153 -34 -154 0
154 -158 0
-34 155 0
-153 155 0
34 153 -155 0
-155 -35 -156 0
156 -158 0
35 155 -157 0
157 -158 0
158 -231 0
-37 -36 -159 0
159 -167 0
-36 160 0
-37 160 0
36 37 -160 0
-160 -38 -161 0
161 -167 0
-38 162 0
-160 162 0
38 160 -162 0
-162 -39 -163 0
163 -167 0
-39 164 0
-162 164 0
39 162 -164 0
-164 -40 -165 0
165 -167 0
40 164 -166 0
166 -167 0
167 -231 0
-42 -41 -168 0
168 -176 0
-41 169 0
-42 169 0
41 42 -169 0
-169 -43 -170 0
170 -176 0
-43 171 0
-169 171 0
43 169 -171 0
-171 -44 -172 0
172 -176 0
-44 173 0
-171 173 0
44 171 -173 0
-173 -45 -174 0
174 -176 0
45 173 -175 0
175 -176 0
176 -231 0
-47 -46 -177 0
177 -185 0
-46 178 0
-47 178 0
46 47 -178 0
-178 -48 -179 0
179 -185 0
-48 180 0
-178 180 0
48 178 -180 0
-180 -49 -181 0
181 -185 0
-49 182 0
-180 182 0
49 180 -182 0
-182 -50 -183 0
183 -185 0
50 182 -184 0
184 -185 0
185 -231 0
-52 -51 -186 0
186 -194 0
-51 187 0
-52 187 0
51 52 -187 0
-187 -53 -188 0
188 -194 0
-53 189 0
-187 189 0
53 187 -189 0
-189 -54 -190 0
190 -194 0
-54 191 0
-189 191 0
54 189 -191 0
-191 -55 -192 0
192 -194 0
55 191 -193 0
193 -194 0
194 -231 0
-57 -56 -195 0
195 -203 0
-56 196 0
-57 196 0
56 57 -196 0
-196 -58 -197 0
197 -203 0
-58 198 0
-196 198 0
58 196 -198 0
-198 -59 -199 0
199 -203 0
-59 200 0
-198 200 0
59 198 -200 0
-200 -60 -201 0
201 -203 0
60 200 -202 0
202 -203 0
203 -231 0
-62 -61 -204 0
204 -212 0
-61 205 0
-62 205 0
61 62 -205 0
-205 -63 -206 0
206 -212 0
-63 207 0
-205 207 0
63 205 -207 0
-207 -64 -208 0
208 -212 0
-64 209 0
-207 209 0
64 207 -209 0
-209 -65 -210 0
210 -212 0
65 209 -211 0
211 -212 0
212 -231 0
-67 -66 -213 0
213 -221 0
-66 214 0
-67 214 0
66 67 -214 0
-214 -68 -215 0
215 -221 0
-68 216 0
-214 216 0
68 214 -216 0
-216 -69 -217 0
217 -221 0
-69 218 0
-216 218 0
69 216 -218 0
-218 -70 -219 0
219 -221 0
70 218 -220 0
220 -221 0
221 -231 0
-72 -71 -222 0
222 -230 0
-71 223 0
-72 223 0
71 72 -223 0
-223 -73 -224 0
224 -230 0
-73 225 0
-223 225 0
73 223 -225 0
-225 -74 -226 0
226 -230 0
-74 227 0
-225 227 0
74 225 -227 0
-227 -75 -228 0
228 -230 0
75 227 -229 0
229 -230 0
230 -231 0
231 -414 0
-77 -76 -232 0
232 -236 0
-76 233 0
-77 233 0
76 77 -233 0
-233 -78 -234 0
234 -236 0
78 233 -235 0
235 -236 0
236 -257 0
-80 -79 -237 0
237 -241 0
-79 238 0
-80 238 0
79 80 -238 0
-238 -81 -239 0
239 -241 0
81 238 -240 0
240 -241 0
241 -257 0
-83 -82 -242 0
242 -246 0
-82 243 0
-83 243 0
82 83 -243 0
-243 -84 -244 0
244 -246 0
84 243 -245 0
245 -246 0
246 -257 0
-86 -85 -247 0
247 -251 0
-85 248 0
-86 248 0
85 86 -248 0
-248 -87 -249 0
249 -251 0
87 248 -250 0
250 -251 0
251 -257 0
-89 -88 -252 0
252 -256 0
-88 253 0
-89 253 0
88 89 -253 0
-253 -90 -254 0
254 -256 0
90 253 -255 0
255 -256 0
256 -257 0
257 -414 0
-92 -91 -258 0
258 -266 0
-91 259 0
-92 259 0
91 92 -259 0
-259 -93 -260 0
260 -266 0
-93 261 0
-259 261 0
93 259 -261 0
-261 -94 -262 0
262 -266 0
-94 263 0
-261 263 0
94 261 -263 0
-263 -95 -264 0
264 -266 0
95 263 -265 0
265 -266 0
266 -414 0
11 -277 0
91 -277 0
-11 -91 277 0
-277 352 0
26 -292 0
92 -292 0
-26 -92 292 0
-292 352 0
41 -307 0
93 -307 0
-41 -93 307 0
-307 352 0
56 -322 0
94 -322 0
-56 -94 322 0
-322 352 0
71 -337 0
95 -337 0
-71 -95 337 0
-337 352 0
277 292 307 322 337 -352 0
352 407 0
1 -267 0
91 -267 0
-1 -91 267 0
-267 342 0
16 -282 0
92 -282 0
-16 -92 282 0
-282 342 0
31 -297 0
93 -297 0
-31 -93 297 0
-297 342 0
46 -312 0
94 -312 0
-46 -94 312 0
-312 342 0
61 -327 0
95 -327 0
-61 -95 327 0
-327 342 0
267 282 297 312 327 -342 0
-76 -91 357 0
-357 372 0
-79 -92 360 0
-360 372 0
-82 -93 363 0
-363 372 0
-85 -94 366 0
-366 372 0
-88 -95 369 0
-369 372 0
-342 -372 375 0
-375 390 0
6 -272 0
91 -272 0
-6 -91 272 0
-272 347 0
21 -287 0
92 -287 0
-21 -92 287 0
-287 347 0
36 -302 0
93 -302 0
-36 -93 302 0
-302 347 0
51 -317 0
94 -317 0
-51 -94 317 0
-317 347 0
66 -332 0
95 -332 0
-66 -95 332 0
-332 347 0
272 287 302 317 332 -347 0
-77 -91 358 0
-358 373 0
-80 -92 361 0
-361 373 0
-83 -93 364 0
-364 373 0
-86 -94 367 0
-367 373 0
-89 -95 370 0
-370 373 0
-347 -373 380 0
-380 390 0
-78 -91 359 0
-359 374 0
-81 -92 362 0
-362 374 0
-84 -93 365 0
-365 374 0
-87 -94 368 0
-368 374 0
-90 -95 371 0
-371 374 0
-352 -374 385 0
-385 390 0
-390 407 0
12 -278 0
91 -278 0
-12 -91 278 0
-278 353 0
27 -293 0
92 -293 0
-27 -92 293 0
-293 353 0
42 -308 0
93 -308 0
-42 -93 308 0
-308 353 0
57 -323 0
94 -323 0
-57 -94 323 0
-323 353 0
72 -338 0
95 -338 0
-72 -95 338 0
-338 353 0
278 293 308 323 338 -353 0
353 408 0
2 -268 0
91 -268 0
-2 -91 268 0
-268 343 0
17 -283 0
92 -283 0
-17 -92 283 0
-283 343 0
32 -298 0
93 -298 0
-32 -93 298 0
-298 343 0
47 -313 0
94 -313 0
-47 -94 313 0
-313 343 0
62 -328 0
95 -328 0
-62 -95 328 0
-328 343 0
268 283 298 313 328 -343 0
-343 -372 376 0
-376 391 0
7 -273 0
91 -273 0
-7 -91 273 0
-273 348 0
22 -288 0
92 -288 0
-22 -92 288 0
-288 348 0
37 -303 0
93 -303 0
-37 -93 303 0
-303 348 0
52 -318 0
94 -318 0
-52 -94 318 0
-318 348 0
67 -333 0
95 -333 0
-67 -95 333 0
-333 348 0
273 288 303 318 333 -348 0
-348 -373 381 0
-381 391 0
-353 -374 386 0
-386 391 0
-391 408 0
13 -279 0
91 -279 0
-13 -91 279 0
-279 354 0
28 -294 0
92 -294 0
-28 -92 294 0
-294 354 0
43 -309 0
93 -309 0
-43 -93 309 0
-309 354 0
58 -324 0
94 -324 0
-58 -94 324 0
-324 354 0
73 -339 0
95 -339 0
-73 -95 339 0
-339 354 0
279 294 309 324 339 -354 0
354 409 0
3 -269 0
91 -269 0
-3 -91 269 0
-269 344 0
18 -284 0
92 -284 0
-18 -92 284 0
-284 344 0
33 -299 0
93 -299 0
-33 -93 299 0
-299 344 0
48 -314 0
94 -314 0
-48 -94 314 0
-314 344 0
63 -329 0
95 -329 0
-63 -95 329 0
-329 344 0
269 284 299 314 329 -344 0
-344 -372 377 0
-377 392 0
8 -274 0
91 -274 0
-8 -91 274 0
-274 349 0
23 -289 0
92 -289 0
-23 -92 289 0
-289 349 0
38 -304 0
93 -304 0
-38 -93 304 0
-304 349 0
53 -319 0
94 -319 0
-53 -94 319 0
-319 349 0
68 -334 0
95 -334 0
-68 -95 334 0
-334 349 0
274 289 304 319 334 -349 0
-349 -373 382 0
-382 392 0
-354 -374 387 0
-387 392 0
-392 409 0
14 -280 0
91 -280 0
-14 -91 280 0
-280 355 0
29 -295 0
92 -295 0
-29 -92 295 0
-295 355 0
44 -310 0
93 -310 0
-44 -93 310 0
-310 355 0
59 -325 0
94 -325 0
-59 -94 325 0
-325 355 0
74 -340 0
95 -340 0
-74 -95 340 0
-340 355 0
280 295 310 325 340 -355 0
355 410 0
4 -270 0
91 -270 0
-4 -91 270 0
-270 345 0
19 -285 0
92 -285 0
-19 -92 285 0
-285 345 0
34 -300 0
93 -300 0
-34 -93 300 0
-300 345 0
49 -315 0
94 -315 0
-49 -94 315 0
-315 345 0
64 -330 0
95 -330 0
-64 -95 330 0
-330 345 0
270 285 300 315 330 -345 0
-345 -372 378 0
-378 393 0
9 -275 0
91 -275 0
-9 -91 275 0
-275 350 0
24 -290 0
92 -290 0
-24 -92 290 0
-290 350 0
39 -305 0
93 -305 0
-39 -93 305 0
-305 350 0
54 -320 0
94 -320 0
-54 -94 320 0
-320 350 0
69 -335 0
95 -335 0
-69 -95 335 0
-335 350 0
275 290 305 320 335 -350 0
-350 -373 383 0
-383 393 0
-355 -374 388 0
-388 393 0
-393 410 0
15 -281 0
91 -281 0
-15 -91 281 0
-281 356 0
30 -296 0
92 -296 0
-30 -92 296 0
-296 356 0
45 -311 0
93 -311 0
-45 -93 311 0
-311 356 0
60 -326 0
94 -326 0
-60 -94 326 0
-326 356 0
75 -341 0
95 -341 0
-75 -95 341 0
-341 356 0
281 296 311 326 341 -356 0
356 411 0
5 -271 0
91 -271 0
-5 -91 271 0
-271 346 0
20 -286 0
92 -286 0
-20 -92 286 0
-286 346 0
35 -301 0
93 -301 0
-35 -93 301 0
-301 346 0
50 -316 0
94 -316 0
-50 -94 316 0
-316 346 0
65 -331 0
95 -331 0
-65 -95 331 0
-331 346 0
271 286 301 316 331 -346 0
-346 -372 379 0
-379 394 0
10 -276 0
91 -276 0
-10 -91 276 0
-276 351 0
25 -291 0
92 -291 0
-25 -92 291 0
-291 351 0
40 -306 0
93 -306 0
-40 -93 306 0
-306 351 0
55 -321 0
94 -321 0
-55 -94 321 0
-321 351 0
70 -336 0
95 -336 0
-70 -95 336 0
-336 351 0
276 291 306 321 336 -351 0
-351 -373 384 0
-384 394 0
-356 -374 389 0
-389 394 0
-394 411 0
-407 -408 -409 -410 -411 412 0
-412 -413 0
347 401 0
-390 401 0
348 402 0
-391 402 0
349 403 0
-392 403 0
350 404 0
-393 404 0
351 405 0
-394 405 0
-401 -402 -403 -404 -405 406 0
-406 -413 0
342 395 0
-390 395 0
343 396 0
-391 396 0
344 397 0
-392 397 0
345 398 0
-393 398 0
346 399 0
-394 399 0
-395 -396 -397 -398 -399 400 0
-400 -413 0
413 -414 0
-91 92 -415 0
415 -525 0
-91 -92 416 0
91 92 416 0
-92 92 416 0
-76 79 -417 0
-416 417 -418 0
418 -525 0
-76 -79 419 0
76 79 419 0
-79 79 419 0
-416 -419 420 0
-77 80 -421 0
-420 421 -422 0
422 -525 0
-77 -80 423 0
77 80 423 0
-80 80 423 0
-420 -423 424 0
-78 81 -425 0
-424 425 -426 0
426 -525 0
-78 -81 427 0
78 81 427 0
-81 81 427 0
-424 -427 428 0
-1 17 -429 0
-428 429 -430 0
430 -525 0
-1 -17 431 0
1 17 431 0
-17 17 431 0
-428 -431 432 0
-2 16 -433 0
-432 433 -434 0
434 -525 0
-2 -16 435 0
2 16 435 0
-16 16 435 0
-432 -435 436 0
-3 18 -437 0
-436 437 -438 0
438 -525 0
-3 -18 439 0
3 18 439 0
-18 18 439 0
-436 -439 440 0
-4 19 -441 0
-440 441 -442 0
442 -525 0
-4 -19 443 0
4 19 443 0
-19 19 443 0
-440 -443 444 0
-5 20 -445 0
-444 445 -446 0
446 -525 0
-5 -20 447 0
5 20 447 0
-20 20 447 0
-444 -447 448 0
-6 22 -449 0
-448 449 -450 0
450 -525 0
-6 -22 451 0
6 22 451 0
-22 22 451 0
-448 -451 452 0
-7 21 -453 0
-452 453 -454 0
454 -525 0
-7 -21 455 0
7 21 455 0
-21 21 455 0
-452 -455 456 0
-8 23 -457 0
-456 457 -458 0
458 -525 0
-8 -23 459 0
8 23 459 0
-23 23 459 0
-456 -459 460 0
-9 24 -461 0
-460 461 -462 0
462 -525 0
-9 -24 463 0
9 24 463 0
-24 24 463 0
-460 -463 464 0
-10 25 -465 0
-464 465 -466 0
466 -525 0
-10 -25 467 0
10 25 467 0
-25 25 467 0
-464 -467 468 0
-11 27 -469 0
-468 469 -470 0
470 -525 0
-11 -27 471 0
11 27 471 0
-27 27 471 0
-468 -471 472 0
-12 26 -473 0
-472 473 -474 0
474 -525 0
-12 -26 475 0
12 26 475 0
-26 26 475 0
-472 -475 476 0
-13 28 -477 0
-476 477 -478 0
478 -525 0
-13 -28 479 0
13 28 479 0
-28 28 479 0
-476 -479 480 0
-14 29 -481 0
-480 481 -482 0
482 -525 0
-14 -29 483 0
14 29 483 0
-29 29 483 0
-480 -483 484 0
-15 30 -485 0
-484 485 -486 0
486 -525 0
-15 -30 487 0
15 30 487 0
-30 30 487 0
-484 -487 488 0
-31 32 -489 0
-488 489 -490 0
490 -525 0
-31 -32 491 0
31 32 491 0
-32 32 491 0
-488 -491 492 0
-36 37 -493 0
-492 493 -494 0
494 -525 0
-36 -37 495 0
36 37 495 0
-37 37 495 0
-492 -495 496 0
-41 42 -497 0
-496 497 -498 0
498 -525 0
-41 -42 499 0
41 42 499 0
-42 42 499 0
-496 -499 500 0
-46 47 -501 0
-500 501 -502 0
502 -525 0
-46 -47 503 0
46 47 503 0
-47 47 503 0
-500 -503 504 0
-51 52 -505 0
-504 505 -506 0
506 -525 0
-51 -52 507 0
51 52 507 0
-52 52 507 0
-504 -507 508 0
-56 57 -509 0
-508 509 -510 0
510 -525 0
-56 -57 511 0
56 57 511 0
-57 57 511 0
-508 -511 512 0
-61 62 -513 0
-512 513 -514 0
514 -525 0
-61 -62 515 0
61 62 515 0
-62 62 515 0
-512 -515 516 0
-66 67 -517 0
-516 517 -518 0
518 -525 0
-66 -67 519 0
66 67 519 0
-67 67 519 0
-516 -519 520 0
-71 72 -521 0
-520 521 -522 0
522 -525 0
525 -1097 0
-92 93 -526 0
526 -636 0
-92 -93 527 0
92 93 527 0
-93 93 527 0
-79 82 -528 0
-527 528 -529 0
529 -636 0
-79 -82 530 0
79 82 530 0
-82 82 530 0
-527 -530 531 0
-80 83 -532 0
-531 532 -533 0
533 -636 0
-80 -83 534 0
80 83 534 0
-83 83 534 0
-531 -534 535 0
-81 84 -536 0
-535 536 -537 0
537 -636 0
-81 -84 538 0
81 84 538 0
-84 84 538 0
-535 -538 539 0
-2 3 -540 0
-539 540 -541 0
541 -636 0
-2 -3 542 0
2 3 542 0
-3 3 542 0
-539 -542 543 0
-7 8 -544 0
-543 544 -545 0
545 -636 0
-7 -8 546 0
7 8 546 0
-8 8 546 0
-543 -546 547 0
-12 13 -548 0
-547 548 -549 0
549 -636 0
-12 -13 550 0
12 13 550 0
-13 13 550 0
-547 -550 551 0
-16 31 -552 0
-551 552 -553 0
553 -636 0
-16 -31 554 0
16 31 554 0
-31 31 554 0
-551 -554 555 0
-17 33 -556 0
-555 556 -557 0
557 -636 0
-17 -33 558 0
17 33 558 0
-33 33 558 0
-555 -558 559 0
-18 32 -560 0
-559 560 -561 0
561 -636 0
-18 -32 562 0
18 32 562 0
-32 32 562 0
-559 -562 563 0
-19 34 -564 0
-563 564 -565 0
565 -636 0
-19 -34 566 0
19 34 566 0
-34 34 566 0
-563 -566 567 0
-20 35 -568 0
-567 568 -569 0
569 -636 0
-20 -35 570 0
20 35 570 0
-35 35 570 0
-567 -570 571 0
-21 36 -572 0
-571 572 -573 0
573 -636 0
-21 -36 574 0
21 36 574 0
-36 36 574 0
-571 -574 575 0
-22 38 -576 0
-575 576 -577 0
577 -636 0
-22 -38 578 0
22 38 578 0
-38 38 578 0
-575 -578 579 0
-23 37 -580 0
-579 580 -581 0
581 -636 0
-23 -37 582 0
23 37 582 0
-37 37 582 0
-579 -582 583 0
-24 39 -584 0
-583 584 -585 0
585 -636 0
-24 -39 586 0
24 39 586 0
-39 39 586 0
-583 -586 587 0
-25 40 -588 0
-587 588 -589 0
589 -636 0
-25 -40 590 0
25 40 590 0
-40 40 590 0
-587 -590 591 0
-26 41 -592 0
-591 592 -593 0
593 -636 0
-26 -41 594 0
26 41 594 0
-41 41 594 0
-591 -594 595 0
-27 43 -596 0
-595 596 -597 0
597 -636 0
-27 -43 598 0
27 43 598 0
-43 43 598 0
-595 -598 599 0
-28 42 -600 0
-599 600 -601 0
601 -636 0
-28 -42 602 0
28 42 602 0
-42 42 602 0
-599 -602 603 0
-29 44 -604 0
-603 604 -605 0
605 -636 0
-29 -44 606 0
29 44 606 0
-44 44 606 0
-603 -606 607 0
-30 45 -608 0
-607 608 -609 0
609 -636 0
-30 -45 610 0
30 45 610 0
-45 45 610 0
-607 -610 611 0
-47 48 -612 0
-611 612 -613 0
613 -636 0
-47 -48 614 0
47 48 614 0
-48 48 614 0
-611 -614 615 0
-52 53 -616 0
-615 616 -617 0
617 -636 0
-52 -53 618 0
52 53 618 0
-53 53 618 0
-615 -618 619 0
-57 58 -620 0
-619 620 -621 0
621 -636 0
-57 -58 622 0
57 58 622 0
-58 58 622 0
-619 -622 623 0
-62 63 -624 0
-623 624 -625 0
625 -636 0
-62 -63 626 0
62 63 626 0
-63 63 626 0
-623 -626 627 0
-67 68 -628 0
-627 628 -629 0
629 -636 0
-67 -68 630 0
67 68 630 0
-68 68 630 0
-627 -630 631 0
-72 73 -632 0
-631 632 -633 0
633 -636 0
636 -1097 0
-93 94 -637 0
637 -747 0
-93 -94 638 0
93 94 638 0
-94 94 638 0
-82 85 -639 0
-638 639 -640 0
640 -747 0
-82 -85 641 0
82 85 641 0
-85 85 641 0
-638 -641 642 0
-83 86 -643 0
-642 643 -644 0
644 -747 0
-83 -86 645 0
83 86 645 0
-86 86 645 0
-642 -645 646 0
-84 87 -647 0
-646 647 -648 0
648 -747 0
-84 -87 649 0
84 87 649 0
-87 87 649 0
-646 -649 650 0
-3 4 -651 0
-650 651 -652 0
652 -747 0
-3 -4 653 0
3 4 653 0
-4 4 653 0
-650 -653 654 0
-8 9 -655 0
-654 655 -656 0
656 -747 0
-8 -9 657 0
8 9 657 0
-9 9 657 0
-654 -657 658 0
-13 14 -659 0
-658 659 -660 0
660 -747 0
-13 -14 661 0
13 14 661 0
-14 14 661 0
-658 -661 662 0
-18 19 -663 0
-662 663 -664 0
664 -747 0
-18 -19 665 0
18 19 665 0
-19 19 665 0
-662 -665 666 0
-23 24 -667 0
-666 667 -668 0
668 -747 0
-23 -24 669 0
23 24 669 0
-24 24 669 0
-666 -669 670 0
-28 29 -671 0
-670 671 -672 0
672 -747 0
-28 -29 673 0
28 29 673 0
-29 29 673 0
-670 -673 674 0
-31 46 -675 0
-674 675 -676 0
676 -747 0
-31 -46 677 0
31 46 677 0
-46 46 677 0
-674 -677 678 0
-32 47 -679 0
-678 679 -680 0
680 -747 0
-32 -47 681 0
32 47 681 0
-47 47 681 0
-678 -681 682 0
-33 49 -683 0
-682 683 -684 0
684 -747 0
-33 -49 685 0
33 49 685 0
-49 49 685 0
-682 -685 686 0
-34 48 -687 0
-686 687 -688 0
688 -747 0
-34 -48 689 0
34 48 689 0
-48 48 689 0
-686 -689 690 0
-35 50 -691 0
-690 691 -692 0
692 -747 0
-35 -50 693 0
35 50 693 0
-50 50 693 0
-690 -693 694 0
-36 51 -695 0
-694 695 -696 0
696 -747 0
-36 -51 697 0
36 51 697 0
-51 51 697 0
-694 -697 698 0
-37 52 -699 0
-698 699 -700 0
700 -747 0
-37 -52 701 0
37 52 701 0
-52 52 701 0
-698 -701 702 0
-38 54 -703 0
-702 703 -704 0
704 -747 0
-38 -54 705 0
38 54 705 0
-54 54 705 0
-702 -705 706 0
-39 53 -707 0
-706 707 -708 0
708 -747 0
-39 -53 709 0
39 53 709 0
-53 53 709 0
-706 -709 710 0
-40 55 -711 0
-710 711 -712 0
712 -747 0
-40 -55 713 0
40 55 713 0
-55 55 713 0
-710 -713 714 0
-41 56 -715 0
-714 715 -716 0
716 -747 0
-41 -56 717 0
41 56 717 0
-56 56 717 0
-714 -717 718 0
-42 57 -719 0
-718 719 -720 0
720 -747 0
-42 -57 721 0
42 57 721 0
-57 57 721 0
-718 -721 722 0
-43 59 -723 0
-722 723 -724 0
724 -747 0
-43 -59 725 0
43 59 725 0
-59 59 725 0
-722 -725 726 0
-44 58 -727 0
-726 727 -728 0
728 -747 0
-44 -58 729 0
44 58 729 0
-58 58 729 0
-726 -729 730 0
-45 60 -731 0
-730 731 -732 0
732 -747 0
-45 -60 733 0
45 60 733 0
-60 60 733 0
-730 -733 734 0
-63 64 -735 0
-734 735 -736 0
736 -747 0
-63 -64 737 0
63 64 737 0
-64 64 737 0
-734 -737 738 0
-68 69 -739 0
-738 739 -740 0
740 -747 0
-68 -69 741 0
68 69 741 0
-69 69 741 0
-738 -741 742 0
-73 74 -743 0
-742 743 -744 0
744 -747 0
747 -1097 0
-94 95 -748 0
748 -858 0
-94 -95 749 0
94 95 749 0
-95 95 749 0
-85 88 -750 0
-749 750 -751 0
751 -858 0
-85 -88 752 0
85 88 752 0
-88 88 752 0
-749 -752 753 0
-86 89 -754 0
-753 754 -755 0
755 -858 0
-86 -89 756 0
86 89 756 0
-89 89 756 0
-753 -756 757 0
-87 90 -758 0
-757 758 -759 0
759 -858 0
-87 -90 760 0
87 90 760 0
-90 90 760 0
-757 -760 761 0
-4 5 -762 0
-761 762 -763 0
763 -858 0
-4 -5 764 0
4 5 764 0
-5 5 764 0
-761 -764 765 0
-9 10 -766 0
-765 766 -767 0
767 -858 0
-9 -10 768 0
9 10 768 0
-10 10 768 0
-765 -768 769 0
-14 15 -770 0
-769 770 -771 0
771 -858 0
-14 -15 772 0
14 15 772 0
-15 15 772 0
-769 -772 773 0
-19 20 -774 0
-773 774 -775 0
775 -858 0
-19 -20 776 0
19 20 776 0
-20 20 776 0
-773 -776 777 0
-24 25 -778 0
-777 778 -779 0
779 -858 0
-24 -25 780 0
24 25 780 0
-25 25 780 0
-777 -780 781 0
-29 30 -782 0
-781 782 -783 0
783 -858 0
-29 -30 784 0
29 30 784 0
-30 30 784 0
-781 -784 785 0
-34 35 -786 0
-785 786 -787 0
787 -858 0
-34 -35 788 0
34 35 788 0
-35 35 788 0
-785 -788 789 0
-39 40 -790 0
-789 790 -791 0
791 -858 0
-39 -40 792 0
39 40 792 0
-40 40 792 0
-789 -792 793 0
-44 45 -794 0
-793 794 -795 0
795 -858 0
-44 -45 796 0
44 45 796 0
-45 45 796 0
-793 -796 797 0
-46 61 -798 0
-797 798 -799 0
799 -858 0
-46 -61 800 0
46 61 800 0
-61 61 800 0
-797 -800 801 0
-47 62 -802 0
-801 802 -803 0
803 -858 0
-47 -62 804 0
47 62 804 0
-62 62 804 0
-801 -804 805 0
-48 63 -806 0
-805 806 -807 0
807 -858 0
-48 -63 808 0
48 63 808 0
-63 63 808 0
-805 -808 809 0
-49 65 -810 0
-809 810 -811 0
811 -858 0
-49 -65 812 0
49 65 812 0
-65 65 812 0
-809 -812 813 0
-50 64 -814 0
-813 814 -815 0
815 -858 0
-50 -64 816 0
50 64 816 0
-64 64 816 0
-813 -816 817 0
-51 66 -818 0
-817 818 -819 0
819 -858 0
-51 -66 820 0
51 66 820 0
-66 66 820 0
-817 -820 821 0
-52 67 -822 0
-821 822 -823 0
823 -858 0
-52 -67 824 0
52 67 824 0
-67 67 824 0
-821 -824 825 0
-53 68 -826 0
-825 826 -827 0
827 -858 0
-53 -68 828 0
53 68 828 0
-68 68 828 0
-825 -828 829 0
-54 70 -830 0
-829 830 -831 0
831 -858 0
-54 -70 832 0
54 70 832 0
-70 70 832 0
-829 -832 833 0
-55 69 -834 0
-833 834 -835 0
835 -858 0
-55 -69 836 0
55 69 836 0
-69 69 836 0
-833 -836 837 0
-56 71 -838 0
-837 838 -839 0
839 -858 0
-56 -71 840 0
56 71 840 0
-71 71 840 0
-837 -840 841 0
-57 72 -842 0
-841 842 -843 0
843 -858 0
-57 -72 844 0
57 72 844 0
-72 72 844 0
-841 -844 845 0
-58 73 -846 0
-845 846 -847 0
847 -858 0
-58 -73 848 0
58 73 848 0
-73 73 848 0
-845 -848 849 0
-59 75 -850 0
-849 850 -851 0
851 -858 0
-59 -75 852 0
59 75 852 0
-75 75 852 0
-849 -852 853 0
-60 74 -854 0
-853 854 -855 0
855 -858 0
858 -1097 0
-76 77 -859 0
859 -977 0
-76 -77 860 0
76 77 860 0
-77 77 860 0
-79 80 -861 0
-860 861 -862 0
862 -977 0
-79 -80 863 0
79 80 863 0
-80 80 863 0
-860 -863 864 0
-82 83 -865 0
-864 865 -866 0
866 -977 0
-82 -83 867 0
82 83 867 0
-83 83 867 0
-864 -867 868 0
-85 86 -869 0
-868 869 -870 0
870 -977 0
-85 -86 871 0
85 86 871 0
-86 86 871 0
-868 -871 872 0
-88 89 -873 0
-872 873 -874 0
874 -977 0
-88 -89 875 0
88 89 875 0
-89 89 875 0
-872 -875 876 0
-1 6 -877 0
-876 877 -878 0
878 -977 0
-1 -6 879 0
1 6 879 0
-6 6 879 0
-876 -879 880 0
-2 7 -881 0
-880 881 -882 0
882 -977 0
-2 -7 883 0
2 7 883 0
-7 7 883 0
-880 -883 884 0
-3 8 -885 0
-884 885 -886 0
886 -977 0
-3 -8 887 0
3 8 887 0
-8 8 887 0
-884 -887 888 0
-4 9 -889 0
-888 889 -890 0
890 -977 0
-4 -9 891 0
4 9 891 0
-9 9 891 0
-888 -891 892 0
-5 10 -893 0
-892 893 -894 0
894 -977 0
-5 -10 895 0
5 10 895 0
-10 10 895 0
-892 -895 896 0
-16 21 -897 0
-896 897 -898 0
898 -977 0
-16 -21 899 0
16 21 899 0
-21 21 899 0
-896 -899 900 0
-17 22 -901 0
-900 901 -902 0
902 -977 0
-17 -22 903 0
17 22 903 0
-22 22 903 0
-900 -903 904 0
-18 23 -905 0
-904 905 -906 0
906 -977 0
-18 -23 907 0
18 23 907 0
-23 23 907 0
-904 -907 908 0
-19 24 -909 0
-908 909 -910 0
910 -977 0
-19 -24 911 0
19 24 911 0
-24 24 911 0
-908 -911 912 0
-20 25 -913 0
-912 913 -914 0
914 -977 0
-20 -25 915 0
20 25 915 0
-25 25 915 0
-912 -915 916 0
-31 36 -917 0
-916 917 -918 0
918 -977 0
-31 -36 919 0
31 36 919 0
-36 36 919 0
-916 -919 920 0
-32 37 -921 0
-920 921 -922 0
922 -977 0
-32 -37 923 0
32 37 923 0
-37 37 923 0
-920 -923 924 0
-33 38 -925 0
-924 925 -926 0
926 -977 0
-33 -38 927 0
33 38 927 0
-38 38 927 0
-924 -927 928 0
-34 39 -929 0
-928 929 -930 0
930 -977 0
-34 -39 931 0
34 39 931 0
-39 39 931 0
-928 -931 932 0
-35 40 -933 0
-932 933 -934 0
934 -977 0
-35 -40 935 0
35 40 935 0
-40 40 935 0
-932 -935 936 0
-46 51 -937 0
-936 937 -938 0
938 -977 0
-46 -51 939 0
46 51 939 0
-51 51 939 0
-936 -939 940 0
-47 52 -941 0
-940 941 -942 0
942 -977 0
-47 -52 943 0
47 52 943 0
-52 52 943 0
-940 -943 944 0
-48 53 -945 0
-944 945 -946 0
946 -977 0
-48 -53 947 0
48 53 947 0
-53 53 947 0
-944 -947 948 0
-49 54 -949 0
-948 949 -950 0
950 -977 0
-49 -54 951 0
49 54 951 0
-54 54 951 0
-948 -951 952 0
-50 55 -953 0
-952 953 -954 0
954 -977 0
-50 -55 955 0
50 55 955 0
-55 55 955 0
-952 -955 956 0
-61 66 -957 0
-956 957 -958 0
958 -977 0
-61 -66 959 0
61 66 959 0
-66 66 959 0
-956 -959 960 0
-62 67 -961 0
-960 961 -962 0
962 -977 0
-62 -67 963 0
62 67 963 0
-67 67 963 0
-960 -963 964 0
-63 68 -965 0
-964 965 -966 0
966 -977 0
-63 -68 967 0
63 68 967 0
-68 68 967 0
-964 -967 968 0
-64 69 -969 0
-968 969 -970 0
970 -977 0
-64 -69 971 0
64 69 971 0
-69 69 971 0
-968 -971 972 0
-65 70 -973 0
-972 973 -974 0
974 -977 0
977 -1097 0
-77 78 -978 0
978 -1096 0
-77 -78 979 0
77 78 979 0
-78 78 979 0
-80 81 -980 0
-979 980 -981 0
981 -1096 0
-80 -81 982 0
80 81 982 0
-81 81 982 0
-979 -982 983 0
-83 84 -984 0
-983 984 -985 0
985 -1096 0
-83 -84 986 0
83 84 986 0
-84 84 986 0
-983 -986 987 0
-86 87 -988 0
-987 988 -989 0
989 -1096 0
-86 -87 990 0
86 87 990 0
-87 87 990 0
-987 -990 991 0
-89 90 -992 0
-991 992 -993 0
993 -1096 0
-89 -90 994 0
89 90 994 0
-90 90 994 0
-991 -994 995 0
-6 11 -996 0
-995 996 -997 0
997 -1096 0
-6 -11 998 0
6 11 998 0
-11 11 998 0
-995 -998 999 0
-7 12 -1000 0
-999 1000 -1001 0
1001 -1096 0
-7 -12 1002 0
7 12 1002 0
-12 12 1002 0
-999 -1002 1003 0
-8 13 -1004 0
-1003 1004 -1005 0
1005 -1096 0
-8 -13 1006 0
8 13 1006 0
-13 13 1006 0
-1003 -1006 1007 0
-9 14 -1008 0
-1007 1008 -1009 0
1009 -1096 0
-9 -14 1010 0
9 14 1010 0
-14 14 1010 0
-1007 -1010 1011 0
-10 15 -1012 0
-1011 1012 -1013 0
1013 -1096 0
-10 -15 1014 0
10 15 1014 0
-15 15 1014 0
-1011 -1014 1015 0
-21 26 -1016 0
-1015 1016 -1017 0
1017 -1096 0
-21 -26 1018 0
21 26 1018 0
-26 26 1018 0
-1015 -1018 1019 0
-22 27 -1020 0
-1019 1020 -1021 0
1021 -1096 0
-22 -27 1022 0
22 27 1022 0
-27 27 1022 0
-1019 -1022 1023 0
-23 28 -1024 0
-1023 1024 -1025 0
1025 -1096 0
-23 -28 1026 0
23 28 1026 0
-28 28 1026 0
-1023 -1026 1027 0
-24 29 -1028 0
-1027 1028 -1029 0
1029 -1096 0
-24 -29 1030 0
24 29 1030 0
-29 29 1030 0
-1027 -1030 1031 0
-25 30 -1032 0
-1031 1032 -1033 0
1033 -1096 0
-25 -30 1034 0
25 30 1034 0
-30 30 1034 0
-1031 -1034 1035 0
-36 41 -1036 0
-1035 1036 -1037 0
1037 -1096 0
-36 -41 1038 0
36 41 1038 0
-41 41 1038 0
-1035 -1038 1039 0
-37 42 -1040 0
-1039 1040 -1041 0
1041 -1096 0
-37 -42 1042 0
37 42 1042 0
-42 42 1042 0
-1039 -1042 1043 0
-38 43 -1044 0
-1043 1044 -1045 0
1045 -1096 0
-38 -43 1046 0
38 43 1046 0
-43 43 1046 0
-1043 -1046 1047 0
-39 44 -1048 0
-1047 1048 -1049 0
1049 -1096 0
-39 -44 1050 0
39 44 1050 0
-44 44 1050 0
-1047 -1050 1051 0
-40 45 -1052 0
-1051 1052 -1053 0
1053 -1096 0
-40 -45 1054 0
40 45 1054 0
-45 45 1054 0
-1051 -1054 1055 0
-51 56 -1056 0
-1055 1056 -1057 0
1057 -1096 0
-51 -56 1058 0
51 56 1058 0
-56 56 1058 0
-1055 -1058 1059 0
-52 57 -1060 0
-1059 1060 -1061 0
1061 -1096 0
-52 -57 1062 0
52 57 1062 0
-57 57 1062 0
-1059 -1062 1063 0
-53 58 -1064 0
-1063 1064 -1065 0
1065 -1096 0
-53 -58 1066 0
53 58 1066 0
-58 58 1066 0
-1063 -1066 1067 0
-54 59 -1068 0
-1067 1068 -1069 0
1069 -1096 0
-54 -59 1070 0
54 59 1070 0
-59 59 1070 0
-1067 -1070 1071 0
-55 60 -1072 0
-1071 1072 -1073 0
1073 -1096 0
-55 -60 1074 0
55 60 1074 0
-60 60 1074 0
-1071 -1074 1075 0
-66 71 -1076 0
-1075 1076 -1077 0
1077 -1096 0
-66 -71 1078 0
66 71 1078 0
-71 71 1078 0
-1075 -1078 1079 0
-67 72 -1080 0
-1079 1080 -1081 0
1081 -1096 0
-67 -72 1082 0
67 72 1082 0
-72 72 1082 0
-1079 -1082 1083 0
-68 73 -1084 0
-1083 1084 -1085 0
1085 -1096 0
-68 -73 1086 0
68 73 1086 0
-73 73 1086 0
-1083 -1086 1087 0
-69 74 -1088 0
-1087 1088 -1089 0
1089 -1096 0
-69 -74 1090 0
69 74 1090 0
-74 74 1090 0
-1087 -1090 1091 0
-70 75 -1092 0
-1091 1092 -1093 0
1093 -1096 0
1096 -1097 0
414 0
1097 0
